(set-info :smt-lib-version 2.6)
(set-logic UF)
(set-info :source |Benchmarks from the paper: "Extending Sledgehammer with SMT Solvers" by Jasmin Blanchette, Sascha Bohme, and Lawrence C. Paulson, CADE 2011.  Translated to SMT2 by Andrew Reynolds and Morgan Deters.|)
(set-info :category "industrial")
(set-info :status unknown)
(declare-sort S1 0)
(declare-sort S2 0)
(declare-sort S3 0)
(declare-sort S4 0)
(declare-sort S5 0)
(declare-sort S6 0)
(declare-sort S7 0)
(declare-sort S8 0)
(declare-sort S9 0)
(declare-sort S10 0)
(declare-sort S11 0)
(declare-sort S12 0)
(declare-sort S13 0)
(declare-sort S14 0)
(declare-sort S15 0)
(declare-sort S16 0)
(declare-sort S17 0)
(declare-sort S18 0)
(declare-sort S19 0)
(declare-sort S20 0)
(declare-sort S21 0)
(declare-sort S22 0)
(declare-sort S23 0)
(declare-sort S24 0)
(declare-sort S25 0)
(declare-sort S26 0)
(declare-sort S27 0)
(declare-fun f1 () S1)
(declare-fun f2 () S1)
(declare-fun f3 (S3 S2) S1)
(declare-fun f4 () S3)
(declare-fun f5 () S3)
(declare-fun f6 (S5 S4) S2)
(declare-fun f7 (S6 S2) S5)
(declare-fun f8 () S6)
(declare-fun f9 (S7 S2) S2)
(declare-fun f10 () S7)
(declare-fun f11 () S4)
(declare-fun f12 (S8 S4) S7)
(declare-fun f13 () S8)
(declare-fun f14 (S9 S2) S8)
(declare-fun f15 () S9)
(declare-fun f16 (S10 S2) S6)
(declare-fun f17 () S10)
(declare-fun f18 (S11 S12) S1)
(declare-fun f19 (S13 S11) S11)
(declare-fun f20 (S11) S13)
(declare-fun f21 (S14 S15) S1)
(declare-fun f22 (S16 S14) S14)
(declare-fun f23 (S14) S16)
(declare-fun f24 (S17 S3) S3)
(declare-fun f25 (S3) S17)
(declare-fun f26 () S7)
(declare-fun f27 (S4 S4) S1)
(declare-fun f28 () S4)
(declare-fun f29 (S18 S19) S2)
(declare-fun f30 (S20 S2) S18)
(declare-fun f31 (S21 S22) S20)
(declare-fun f32 () S21)
(declare-fun f33 () S22)
(declare-fun f34 () S5)
(declare-fun f35 (S23 S19) S19)
(declare-fun f36 (S24 S7) S23)
(declare-fun f37 () S24)
(declare-fun f38 () S19)
(declare-fun f39 (S3 S19) S1)
(declare-fun f40 (S22 S2) S7)
(declare-fun f41 (S14 S25) S1)
(declare-fun f42 (S11) S14)
(declare-fun f43 () S7)
(declare-fun f44 () S19)
(declare-fun f45 (S27 S4) S1)
(declare-fun f46 (S26 S4) S27)
(declare-fun f47 () S15)
(declare-fun f48 () S25)
(assert (not (= f1 f2)))
(assert (forall ((?v0 S2)) (= (= (f3 f4 ?v0) f1) (and (= (f3 f5 ?v0) f1) (forall ((?v1 S4)) (= (f3 f5 (f6 (f7 f8 ?v0) ?v1)) f1))))))
(assert (forall ((?v0 S2)) (= (f9 f10 ?v0) (f6 (f7 f8 ?v0) f11))))
(assert (forall ((?v0 S4) (?v1 S2)) (= (f9 (f12 f13 ?v0) ?v1) (f6 (f7 f8 ?v1) ?v0))))
(assert (forall ((?v0 S2) (?v1 S4) (?v2 S2)) (= (f9 (f12 (f14 f15 ?v0) ?v1) ?v2) (f6 (f7 (f16 f17 ?v2) ?v0) ?v1))))
(assert (forall ((?v0 S11) (?v1 S11) (?v2 S12)) (= (= (f18 (f19 (f20 ?v0) ?v1) ?v2) f1) (and (= (f18 ?v0 ?v2) f1) (= (f18 ?v1 ?v2) f1)))))
(assert (forall ((?v0 S14) (?v1 S14) (?v2 S15)) (= (= (f21 (f22 (f23 ?v0) ?v1) ?v2) f1) (and (= (f21 ?v0 ?v2) f1) (= (f21 ?v1 ?v2) f1)))))
(assert (forall ((?v0 S3) (?v1 S3) (?v2 S2)) (= (= (f3 (f24 (f25 ?v0) ?v1) ?v2) f1) (and (= (f3 ?v0 ?v2) f1) (= (f3 ?v1 ?v2) f1)))))
(assert (forall ((?v0 S2)) (= (f9 f26 ?v0) ?v0)))
(assert (not (=> (= (f27 f28 f11) f1) (= (f3 f5 (f29 (f30 (f31 f32 f33) (f6 f34 f28)) (f35 (f36 f37 f10) f38))) f1))))
(assert (= (f39 f4 f38) f1))
(assert (forall ((?v0 S19) (?v1 S4)) (=> (= (f39 f5 ?v0) f1) (= (f3 f5 (f29 (f30 (f31 f32 f33) (f6 f34 ?v1)) ?v0)) f1))))
(assert (forall ((?v0 S2) (?v1 S19) (?v2 S4)) (let ((?v_0 (f31 f32 f33))) (= (f6 (f7 f8 (f29 (f30 ?v_0 ?v0) ?v1)) ?v2) (f29 (f30 ?v_0 (f6 (f7 f8 ?v0) ?v2)) (f35 (f36 f37 (f12 f13 ?v2)) ?v1))))))
(assert (forall ((?v0 S4) (?v1 S19) (?v2 S4) (?v3 S19)) (let ((?v_0 (f31 f32 f33))) (= (= (f29 (f30 ?v_0 (f6 f34 ?v0)) ?v1) (f29 (f30 ?v_0 (f6 f34 ?v2)) ?v3)) (and (= ?v0 ?v2) (= ?v1 ?v3))))))
(assert (forall ((?v0 S2) (?v1 S2) (?v2 S4)) (= (f6 (f7 f8 (f9 (f40 f33 ?v0) ?v1)) ?v2) (f9 (f40 f33 (f6 (f7 f8 ?v0) ?v2)) (f6 (f7 f8 ?v1) ?v2)))))
(assert (forall ((?v0 S4) (?v1 S2) (?v2 S2)) (not (= (f6 f34 ?v0) (f9 (f40 f33 ?v1) ?v2)))))
(assert (forall ((?v0 S2) (?v1 S2) (?v2 S4)) (not (= (f9 (f40 f33 ?v0) ?v1) (f6 f34 ?v2)))))
(assert (forall ((?v0 S2) (?v1 S19) (?v2 S2)) (let ((?v_0 (f31 f32 f33))) (= (= (f29 (f30 ?v_0 ?v0) ?v1) (f29 (f30 ?v_0 ?v2) ?v1)) (= ?v0 ?v2)))))
(assert (forall ((?v0 S14) (?v1 S14) (?v2 S25)) (= (= (f41 (f22 (f23 ?v0) ?v1) ?v2) f1) (and (= (f41 ?v0 ?v2) f1) (= (f41 ?v1 ?v2) f1)))))
(assert (forall ((?v0 S11) (?v1 S11) (?v2 S15)) (= (= (f21 (f42 (f19 (f20 ?v0) ?v1)) ?v2) f1) (and (= (f21 (f42 ?v0) ?v2) f1) (= (f21 (f42 ?v1) ?v2) f1)))))
(assert (forall ((?v0 S3) (?v1 S3) (?v2 S19)) (= (= (f39 (f24 (f25 ?v0) ?v1) ?v2) f1) (and (= (f39 ?v0 ?v2) f1) (= (f39 ?v1 ?v2) f1)))))
(assert (forall ((?v0 S19)) (= (f35 (f36 f37 f26) ?v0) ?v0)))
(assert (forall ((?v0 S4) (?v1 S4)) (= (= (f6 f34 ?v0) (f6 f34 ?v1)) (= ?v0 ?v1))))
(assert (forall ((?v0 S2) (?v1 S2) (?v2 S2) (?v3 S2)) (= (= (f9 (f40 f33 ?v0) ?v1) (f9 (f40 f33 ?v2) ?v3)) (and (= ?v0 ?v2) (= ?v1 ?v3)))))
(assert (forall ((?v0 S22) (?v1 S2) (?v2 S19) (?v3 S2)) (let ((?v_0 (f31 f32 ?v0))) (=> (forall ((?v4 S2) (?v5 S2) (?v6 S2)) (let ((?v_1 (f40 ?v0 ?v6))) (= (f9 (f40 ?v0 (f9 ?v_1 ?v4)) ?v5) (f9 (f40 ?v0 (f9 ?v_1 ?v5)) ?v4)))) (= (f9 (f40 ?v0 (f29 (f30 ?v_0 ?v1) ?v2)) ?v3) (f29 (f30 ?v_0 (f9 (f40 ?v0 ?v1) ?v3)) ?v2))))))
(assert (forall ((?v0 S2) (?v1 S19) (?v2 S2) (?v3 S4)) (let ((?v_0 (f31 f32 f33))) (= (f6 (f7 (f16 f17 (f29 (f30 ?v_0 ?v0) ?v1)) ?v2) ?v3) (f29 (f30 ?v_0 (f6 (f7 (f16 f17 ?v0) ?v2) ?v3)) (f35 (f36 f37 (f12 (f14 f15 ?v2) ?v3)) ?v1))))))
(assert (forall ((?v0 S4) (?v1 S19) (?v2 S2) (?v3 S19)) (let ((?v_0 (f31 f32 f33))) (not (= (f29 (f30 ?v_0 (f6 f34 ?v0)) ?v1) (f29 (f30 ?v_0 (f9 f43 ?v2)) ?v3))))))
(assert (forall ((?v0 S2) (?v1 S2) (?v2 S4) (?v3 S19)) (not (= (f9 (f40 f33 (f9 f43 ?v0)) ?v1) (f29 (f30 (f31 f32 f33) (f6 f34 ?v2)) ?v3)))))
(assert (forall ((?v0 S4) (?v1 S2) (?v2 S19)) (let ((?v_0 (f6 f34 ?v0))) (= (= ?v_0 (f29 (f30 (f31 f32 f33) ?v1) ?v2)) (and (= ?v_0 ?v1) (= ?v2 f44))))))
(assert (forall ((?v0 S4) (?v1 S4) (?v2 S26)) (let ((?v_0 (= (f45 (f46 ?v2 ?v1) ?v0) f1))) (=> (=> (= (f27 ?v0 ?v1) f1) ?v_0) (=> (=> (= ?v0 ?v1) ?v_0) (=> (=> (= (f27 ?v1 ?v0) f1) ?v_0) ?v_0))))))
(assert (forall ((?v0 S4) (?v1 S4)) (=> (= (f27 ?v0 ?v1) f1) (not (= ?v0 ?v1)))))
(assert (forall ((?v0 S4) (?v1 S4)) (=> (= (f27 ?v0 ?v1) f1) (not (= ?v1 ?v0)))))
(assert (forall ((?v0 S4)) (=> (= (f27 ?v0 ?v0) f1) false)))
(assert (forall ((?v0 S11)) (= (f21 (f42 ?v0) f47) f1)))
(assert (forall ((?v0 S14)) (= (f41 ?v0 f48) f1)))
(assert (forall ((?v0 S3)) (= (f39 ?v0 f44) f1)))
(assert (forall ((?v0 S2)) (=> (= (f3 f5 ?v0) f1) (= (f3 f5 (f9 f43 ?v0)) f1))))
(assert (forall ((?v0 S2) (?v1 S2)) (= (= (f9 f43 ?v0) (f9 f43 ?v1)) (= ?v0 ?v1))))
(assert (forall ((?v0 S2) (?v1 S2) (?v2 S19)) (let ((?v_0 (f9 f43 ?v0))) (= (= ?v_0 (f29 (f30 (f31 f32 f33) ?v1) ?v2)) (and (= ?v_0 ?v1) (= ?v2 f44))))))
(assert (forall ((?v0 S2) (?v1 S19) (?v2 S2)) (let ((?v_0 (f9 f43 ?v2))) (= (= (f29 (f30 (f31 f32 f33) ?v0) ?v1) ?v_0) (and (= ?v0 ?v_0) (= ?v1 f44))))))
(assert (forall ((?v0 S7) (?v1 S19)) (= (= f44 (f35 (f36 f37 ?v0) ?v1)) (= ?v1 f44))))
(assert (forall ((?v0 S7)) (= (f35 (f36 f37 ?v0) f44) f44)))
(check-sat)
(exit)
